<number of tasks>
100

<cycle time>
1000

<order strength>
0.897


<task times>
1 336
2 527
3 564
4 430
5 667
6 417
7 595
8 516
9 502
10 558
11 439
12 376
13 459
14 625
15 289
16 530
17 426
18 764
19 584
20 538
21 607
22 571
23 742
24 331
25 419
26 170
27 354
28 374
29 586
30 532
31 545
32 602
33 582
34 536
35 630
36 356
37 497
38 484
39 203
40 541
41 807
42 599
43 473
44 534
45 557
46 505
47 399
48 282
49 513
50 642
51 315
52 437
53 464
54 496
55 672
56 281
57 639
58 378
59 638
60 603
61 625
62 490
63 542
64 520
65 527
66 558
67 745
68 464
69 739
70 616
71 251
72 513
73 487
74 464
75 642
76 424
77 520
78 442
79 622
80 550
81 404
82 575
83 569
84 474
85 416
86 569
87 428
88 441
89 560
90 317
91 535
92 827
93 255
94 614
95 552
96 357
97 259
98 500
99 376
100 552

<precedence relations>
1,5
1,6
1,7
2,5
2,6
2,7
3,5
3,6
3,7
4,5
4,6
4,7
5,8
5,9
6,8
6,9
7,8
7,9
8,10
8,11
8,12
9,10
9,11
9,12
10,13
10,14
10,15
11,13
11,14
11,15
12,13
12,14
12,15
13,16
13,17
14,16
14,17
15,16
15,17
16,18
16,19
16,20
16,21
17,18
17,19
17,20
17,21
18,22
18,23
18,24
18,25
18,26
18,27
19,22
19,23
19,24
19,25
19,26
19,27
20,22
20,23
20,24
20,25
20,26
20,27
21,22
21,23
21,24
21,25
21,26
21,27
22,28
22,29
22,30
23,28
23,29
23,30
24,28
24,29
24,30
25,28
25,29
25,30
26,28
26,29
26,30
27,28
27,29
27,30
28,31
28,32
28,33
28,34
29,31
29,32
29,33
29,34
30,31
30,32
30,33
30,34
31,35
31,36
31,37
32,35
32,36
32,37
33,35
33,36
33,37
34,35
34,36
34,37
35,38
35,39
35,40
36,38
36,39
36,40
37,38
38,41
38,43
38,44
39,41
39,42
39,43
40,42
40,44
41,47
41,48
42,46
42,47
42,48
43,45
43,46
43,47
43,48
44,45
44,46
44,47
44,48
45,49
45,53
46,49
46,50
47,49
47,50
48,51
48,58
48,62
49,51
49,52
49,54
49,55
50,52
50,53
50,54
51,57
52,56
52,57
53,56
53,58
54,61
54,69
54,70
55,65
56,59
56,62
56,73
57,61
57,70
58,59
58,60
59,70
60,63
60,64
61,63
61,71
62,64
63,66
64,65
64,67
65,71
66,68
66,72
66,73
67,69
67,70
68,75
69,94
70,77
70,85
70,92
70,93
71,75
72,76
72,78
73,74
73,75
74,79
74,86
75,78
75,79
75,80
76,77
77,90
78,81
79,82
79,88
79,100
80,92
80,96
80,98
81,82
81,83
81,84
81,85
81,86
83,92
83,98
84,87
84,89
84,91
85,87
85,88
85,89
86,89
86,90
89,99
90,94
91,92
91,93
92,97
93,98
93,99
94,95
94,96
94,97
95,99
97,99
98,100

<end>
